c colouring generated by benchmark framework
p edge 324 1595
v 1 0
v 2 4
v 3 4
v 4 5
v 5 3
v 6 3
v 7 1
v 8 2
v 9 4
v 10 4
v 11 5
v 12 1
v 13 0
v 14 5
v 15 2
v 16 1
v 17 2
v 18 1
v 19 4
v 20 0
v 21 1
v 22 1
v 23 2
v 24 3
v 25 5
v 26 0
v 27 1
v 28 4
v 29 1
v 30 3
v 31 4
v 32 0
v 33 0
v 34 0
v 35 2
v 36 0
v 37 0
v 38 3
v 39 0
v 40 1
v 41 1
v 42 5
v 43 2
v 44 5
v 45 3
v 46 2
v 47 5
v 48 2
v 49 4
v 50 3
v 51 1
v 52 2
v 53 3
v 54 4
v 55 4
v 56 4
v 57 1
v 58 1
v 59 2
v 60 2
v 61 0
v 62 5
v 63 0
v 64 1
v 65 1
v 66 3
v 67 3
v 68 0
v 69 4
v 70 2
v 71 2
v 72 2
v 73 2
v 74 4
v 75 3
v 76 4
v 77 5
v 78 5
v 79 5
v 80 5
v 81 2
v 82 1
v 83 5
v 84 1
v 85 3
v 86 2
v 87 0
v 88 4
v 89 0
v 90 5
v 91 1
v 92 3
v 93 2
v 94 1
v 95 5
v 96 2
v 97 3
v 98 4
v 99 3
v 100 3
v 101 3
v 102 3
v 103 1
v 104 2
v 105 4
v 106 0
v 107 2
v 108 2
v 109 0
v 110 2
v 111 5
v 112 0
v 113 2
v 114 1
v 115 1
v 116 3
v 117 2
v 118 5
v 119 0
v 120 5
v 121 5
v 122 2
v 123 3
v 124 1
v 125 3
v 126 2
v 127 3
v 128 3
v 129 5
v 130 4
v 131 5
v 132 1
v 133 0
v 134 1
v 135 4
v 136 1
v 137 3
v 138 3
v 139 3
v 140 0
v 141 0
v 142 4
v 143 5
v 144 0
v 145 3
v 146 4
v 147 0
v 148 1
v 149 3
v 150 0
v 151 3
v 152 4
v 153 1
v 154 0
v 155 0
v 156 0
v 157 5
v 158 5
v 159 2
v 160 0
v 161 5
v 162 2
v 163 1
v 164 3
v 165 3
v 166 1
v 167 1
v 168 2
v 169 1
v 170 1
v 171 0
v 172 2
v 173 3
v 174 5
v 175 4
v 176 2
v 177 0
v 178 0
v 179 1
v 180 3
v 181 1
v 182 3
v 183 3
v 184 4
v 185 4
v 186 1
v 187 1
v 188 2
v 189 0
v 190 1
v 191 2
v 192 0
v 193 2
v 194 4
v 195 3
v 196 5
v 197 0
v 198 2
v 199 4
v 200 3
v 201 0
v 202 4
v 203 2
v 204 2
v 205 4
v 206 5
v 207 0
v 208 5
v 209 3
v 210 2
v 211 4
v 212 2
v 213 3
v 214 1
v 215 2
v 216 2
v 217 0
v 218 0
v 219 1
v 220 2
v 221 1
v 222 5
v 223 1
v 224 3
v 225 4
v 226 0
v 227 1
v 228 0
v 229 1
v 230 1
v 231 3
v 232 1
v 233 0
v 234 0
v 235 3
v 236 0
v 237 0
v 238 1
v 239 2
v 240 1
v 241 4
v 242 4
v 243 0
v 244 2
v 245 2
v 246 2
v 247 0
v 248 5
v 249 0
v 250 1
v 251 0
v 252 2
v 253 2
v 254 0
v 255 0
v 256 2
v 257 4
v 258 3
v 259 3
v 260 3
v 261 2
v 262 4
v 263 1
v 264 5
v 265 0
v 266 4
v 267 4
v 268 3
v 269 2
v 270 1
v 271 3
v 272 0
v 273 2
v 274 4
v 275 2
v 276 1
v 277 4
v 278 3
v 279 2
v 280 0
v 281 0
v 282 3
v 283 0
v 284 3
v 285 0
v 286 1
v 287 1
v 288 0
v 289 3
v 290 0
v 291 0
v 292 3
v 293 5
v 294 1
v 295 4
v 296 4
v 297 3
v 298 3
v 299 0
v 300 1
v 301 3
v 302 1
v 303 0
v 304 2
v 305 2
v 306 5
v 307 5
v 308 3
v 309 3
v 310 1
v 311 4
v 312 1
v 313 2
v 314 2
v 315 1
v 316 0
v 317 1
v 318 2
v 319 3
v 320 3
v 321 3
v 322 2
v 323 2
v 324 0
